c Source: TUDataset PTC_MR, graph #336
c Original: n=14, m=14
c Augmented: +13 edges, n=20 -> m=27, circuit_rank=8
c Augmented to satisfy Eulerian condition (no parallel edges)
p sp 20
e 4 13
e 1 4
e 7 9
e 1 3
e 5 6
e 7 8
e 4 5
e 1 2
e 9 11
e 11 13
e 9 10
e 5 7
e 13 14
e 11 12
e 1 15
e 2 15
e 3 4
e 5 16
e 6 16
e 7 17
e 8 17
e 9 18
e 10 18
e 11 19
e 12 19
e 13 20
e 14 20
